(set-logic QF_S)
(declare-fun B () String)
(declare-fun E () String)
(declare-fun J () String)
(declare-fun H () String)
(declare-fun I () String)
(declare-fun F () String)
(declare-fun G () String)
(declare-fun A () String)
(declare-fun C () String)
(declare-fun D () String)
(assert (= (str.++  A "a" A "b" B "b" C "b" D "b" E "b" F "b" G "b" H "b" I "b" J)  (str.++  "a" A B B "b" C C "b" D D "b" E E "b" F F "b" G G "b" H H "b" I I "b" J J "baa") ))
(check-sat)
(get-model)
